c " random instance " 
p edges 200 2214
e 1 11
e 1 15
e 1 18
e 1 21
e 1 29
e 1 36
e 1 37
e 1 57
e 1 81
e 1 84
e 1 89
e 1 96
e 1 109
e 1 110
e 1 129
e 1 133
e 1 138
e 1 144
e 1 145
e 1 147
e 1 157
e 1 159
e 1 180
e 2 48
e 2 52
e 2 53
e 2 55
e 2 57
e 2 75
e 2 78
e 2 80
e 2 88
e 2 92
e 2 96
e 2 104
e 2 105
e 2 106
e 2 113
e 2 114
e 2 121
e 2 140
e 2 147
e 2 154
e 2 162
e 2 168
e 2 169
e 2 171
e 2 172
e 2 177
e 2 185
e 2 192
e 2 200
e 3 15
e 3 41
e 3 62
e 3 73
e 3 100
e 3 113
e 3 124
e 3 126
e 3 139
e 3 146
e 3 147
e 3 172
e 3 192
e 4 30
e 4 53
e 4 63
e 4 65
e 4 69
e 4 86
e 4 103
e 4 122
e 4 123
e 4 124
e 4 131
e 4 142
e 4 152
e 4 156
e 4 168
e 4 181
e 4 187
e 4 189
e 5 13
e 5 44
e 5 57
e 5 79
e 5 97
e 5 100
e 5 101
e 5 121
e 5 123
e 5 124
e 5 127
e 5 129
e 5 141
e 5 151
e 5 154
e 5 155
e 5 162
e 5 175
e 6 11
e 6 15
e 6 25
e 6 34
e 6 42
e 6 57
e 6 61
e 6 63
e 6 65
e 6 77
e 6 97
e 6 99
e 6 104
e 6 110
e 6 118
e 6 155
e 6 164
e 6 165
e 6 169
e 6 176
e 6 178
e 7 21
e 7 27
e 7 39
e 7 40
e 7 47
e 7 53
e 7 54
e 7 72
e 7 75
e 7 77
e 7 80
e 7 100
e 7 101
e 7 128
e 7 138
e 7 152
e 7 167
e 7 184
e 7 186
e 7 192
e 7 196
e 8 17
e 8 18
e 8 20
e 8 29
e 8 39
e 8 40
e 8 49
e 8 65
e 8 68
e 8 74
e 8 88
e 8 114
e 8 120
e 8 126
e 8 133
e 8 142
e 8 147
e 8 149
e 8 158
e 8 161
e 8 163
e 8 179
e 8 188
e 9 14
e 9 17
e 9 21
e 9 29
e 9 33
e 9 34
e 9 38
e 9 47
e 9 51
e 9 61
e 9 64
e 9 67
e 9 90
e 9 106
e 9 119
e 9 123
e 9 128
e 9 129
e 9 140
e 9 142
e 9 162
e 9 171
e 9 179
e 9 190
e 10 14
e 10 21
e 10 22
e 10 49
e 10 50
e 10 68
e 10 69
e 10 82
e 10 100
e 10 133
e 10 140
e 10 141
e 10 154
e 10 157
e 10 165
e 10 174
e 11 24
e 11 30
e 11 33
e 11 44
e 11 51
e 11 53
e 11 75
e 11 84
e 11 90
e 11 93
e 11 113
e 11 122
e 11 127
e 11 131
e 11 148
e 11 157
e 11 158
e 11 196
e 12 17
e 12 26
e 12 38
e 12 42
e 12 44
e 12 46
e 12 50
e 12 59
e 12 60
e 12 66
e 12 72
e 12 89
e 12 93
e 12 121
e 12 122
e 12 134
e 12 145
e 12 150
e 12 151
e 12 152
e 12 165
e 12 188
e 12 191
e 13 17
e 13 18
e 13 31
e 13 36
e 13 47
e 13 51
e 13 60
e 13 65
e 13 70
e 13 75
e 13 91
e 13 100
e 13 117
e 13 120
e 13 152
e 13 153
e 13 167
e 13 185
e 13 190
e 13 191
e 13 195
e 14 27
e 14 36
e 14 52
e 14 57
e 14 58
e 14 65
e 14 68
e 14 74
e 14 81
e 14 82
e 14 104
e 14 106
e 14 108
e 14 117
e 14 123
e 14 134
e 14 136
e 14 149
e 14 168
e 14 180
e 14 194
e 14 196
e 14 197
e 15 29
e 15 43
e 15 49
e 15 59
e 15 62
e 15 72
e 15 74
e 15 86
e 15 90
e 15 93
e 15 101
e 15 102
e 15 107
e 15 110
e 15 112
e 15 118
e 15 132
e 15 133
e 15 134
e 15 138
e 15 143
e 15 144
e 15 146
e 15 152
e 16 25
e 16 36
e 16 40
e 16 41
e 16 49
e 16 54
e 16 65
e 16 78
e 16 87
e 16 92
e 16 104
e 16 126
e 16 141
e 16 145
e 16 157
e 16 172
e 16 180
e 17 26
e 17 29
e 17 37
e 17 40
e 17 43
e 17 53
e 17 65
e 17 70
e 17 79
e 17 83
e 17 102
e 17 105
e 17 114
e 17 120
e 17 133
e 17 146
e 17 148
e 17 151
e 17 162
e 17 163
e 17 167
e 17 178
e 17 181
e 17 196
e 17 197
e 17 199
e 18 23
e 18 31
e 18 37
e 18 45
e 18 62
e 18 69
e 18 85
e 18 86
e 18 93
e 18 104
e 18 116
e 18 125
e 18 135
e 18 158
e 18 160
e 18 161
e 18 167
e 18 169
e 18 174
e 18 175
e 18 184
e 18 192
e 18 196
e 19 31
e 19 33
e 19 54
e 19 57
e 19 64
e 19 69
e 19 82
e 19 92
e 19 100
e 19 102
e 19 103
e 19 125
e 19 133
e 19 139
e 19 150
e 19 170
e 19 172
e 19 173
e 19 174
e 19 181
e 19 182
e 19 190
e 19 191
e 19 200
e 20 26
e 20 44
e 20 59
e 20 60
e 20 68
e 20 75
e 20 84
e 20 92
e 20 95
e 20 122
e 20 126
e 20 131
e 20 145
e 20 170
e 20 171
e 20 174
e 20 176
e 21 29
e 21 30
e 21 39
e 21 50
e 21 63
e 21 68
e 21 72
e 21 81
e 21 97
e 21 98
e 21 105
e 21 107
e 21 117
e 21 121
e 21 126
e 21 136
e 21 154
e 21 166
e 21 167
e 21 185
e 21 188
e 22 41
e 22 45
e 22 48
e 22 59
e 22 65
e 22 77
e 22 89
e 22 96
e 22 106
e 22 110
e 22 117
e 22 122
e 22 137
e 22 139
e 22 148
e 22 151
e 22 154
e 22 171
e 23 44
e 23 57
e 23 78
e 23 79
e 23 80
e 23 88
e 23 89
e 23 103
e 23 107
e 23 111
e 23 115
e 23 119
e 23 130
e 23 143
e 23 144
e 23 145
e 23 146
e 23 153
e 23 161
e 23 174
e 23 182
e 23 183
e 23 192
e 23 199
e 24 26
e 24 31
e 24 36
e 24 40
e 24 56
e 24 57
e 24 65
e 24 88
e 24 100
e 24 103
e 24 117
e 24 118
e 24 134
e 24 146
e 24 149
e 24 150
e 24 170
e 24 173
e 25 30
e 25 40
e 25 78
e 25 80
e 25 91
e 25 96
e 25 105
e 25 107
e 25 126
e 25 129
e 25 170
e 25 172
e 25 174
e 25 180
e 25 199
e 26 31
e 26 44
e 26 53
e 26 56
e 26 58
e 26 96
e 26 116
e 26 132
e 26 143
e 26 158
e 26 167
e 26 187
e 26 193
e 27 41
e 27 59
e 27 66
e 27 79
e 27 81
e 27 82
e 27 89
e 27 91
e 27 92
e 27 98
e 27 102
e 27 105
e 27 111
e 27 128
e 27 137
e 27 156
e 27 163
e 27 168
e 27 172
e 27 188
e 27 191
e 27 195
e 28 31
e 28 35
e 28 39
e 28 40
e 28 42
e 28 43
e 28 55
e 28 59
e 28 65
e 28 70
e 28 89
e 28 95
e 28 98
e 28 124
e 28 135
e 28 136
e 28 138
e 28 159
e 28 166
e 28 196
e 29 42
e 29 44
e 29 48
e 29 66
e 29 78
e 29 105
e 29 131
e 29 133
e 29 142
e 29 147
e 29 149
e 29 151
e 29 152
e 29 166
e 29 170
e 29 176
e 29 179
e 29 186
e 29 196
e 30 62
e 30 82
e 30 88
e 30 91
e 30 92
e 30 100
e 30 115
e 30 121
e 30 124
e 30 133
e 30 142
e 30 155
e 30 172
e 30 173
e 30 180
e 30 183
e 30 199
e 31 34
e 31 42
e 31 49
e 31 80
e 31 81
e 31 82
e 31 92
e 31 104
e 31 112
e 31 113
e 31 117
e 31 126
e 31 129
e 31 147
e 31 149
e 31 151
e 31 162
e 31 164
e 31 168
e 31 172
e 31 186
e 31 194
e 31 200
e 32 33
e 32 35
e 32 59
e 32 62
e 32 73
e 32 84
e 32 87
e 32 99
e 32 133
e 32 147
e 32 148
e 32 152
e 32 153
e 32 191
e 32 196
e 32 200
e 33 38
e 33 41
e 33 43
e 33 59
e 33 66
e 33 72
e 33 74
e 33 85
e 33 102
e 33 104
e 33 117
e 33 118
e 33 119
e 33 137
e 33 141
e 33 144
e 33 150
e 33 151
e 33 152
e 33 154
e 33 164
e 33 170
e 33 171
e 33 181
e 33 195
e 34 35
e 34 40
e 34 51
e 34 62
e 34 74
e 34 84
e 34 89
e 34 94
e 34 111
e 34 112
e 34 114
e 34 116
e 34 125
e 34 127
e 34 139
e 34 149
e 34 163
e 34 176
e 34 184
e 34 194
e 35 55
e 35 76
e 35 86
e 35 93
e 35 98
e 35 152
e 35 159
e 35 162
e 35 167
e 35 176
e 35 178
e 35 183
e 35 188
e 35 195
e 36 66
e 36 69
e 36 72
e 36 89
e 36 90
e 36 94
e 36 96
e 36 121
e 36 150
e 36 159
e 36 177
e 36 188
e 36 195
e 36 199
e 37 60
e 37 65
e 37 66
e 37 75
e 37 85
e 37 96
e 37 97
e 37 103
e 37 105
e 37 125
e 37 128
e 37 131
e 37 134
e 37 145
e 37 146
e 37 157
e 37 163
e 37 177
e 38 41
e 38 45
e 38 47
e 38 49
e 38 60
e 38 73
e 38 83
e 38 85
e 38 91
e 38 106
e 38 110
e 38 130
e 38 142
e 38 143
e 38 154
e 38 155
e 38 156
e 38 187
e 38 193
e 39 41
e 39 60
e 39 62
e 39 83
e 39 92
e 39 93
e 39 94
e 39 98
e 39 122
e 39 123
e 39 138
e 39 164
e 39 173
e 39 176
e 40 45
e 40 47
e 40 70
e 40 73
e 40 80
e 40 94
e 40 105
e 40 106
e 40 108
e 40 122
e 40 127
e 40 128
e 40 135
e 40 137
e 40 149
e 40 162
e 40 178
e 40 180
e 40 183
e 40 184
e 40 186
e 40 192
e 41 44
e 41 49
e 41 53
e 41 61
e 41 72
e 41 80
e 41 85
e 41 100
e 41 105
e 41 120
e 41 138
e 41 151
e 41 157
e 41 167
e 41 175
e 41 182
e 42 46
e 42 48
e 42 57
e 42 70
e 42 73
e 42 80
e 42 83
e 42 84
e 42 109
e 42 135
e 42 142
e 42 150
e 42 163
e 42 164
e 42 173
e 42 180
e 42 186
e 42 200
e 43 52
e 43 54
e 43 65
e 43 74
e 43 77
e 43 82
e 43 84
e 43 93
e 43 108
e 43 137
e 43 142
e 43 144
e 43 166
e 43 168
e 43 178
e 43 180
e 43 185
e 43 186
e 43 198
e 44 66
e 44 84
e 44 86
e 44 103
e 44 110
e 44 120
e 44 135
e 44 142
e 44 181
e 44 194
e 45 46
e 45 65
e 45 69
e 45 82
e 45 88
e 45 91
e 45 115
e 45 127
e 45 130
e 45 135
e 45 142
e 45 168
e 45 169
e 45 191
e 46 52
e 46 71
e 46 72
e 46 79
e 46 81
e 46 92
e 46 98
e 46 121
e 46 139
e 46 142
e 46 152
e 46 160
e 46 165
e 46 195
e 46 199
e 47 57
e 47 73
e 47 83
e 47 93
e 47 94
e 47 96
e 47 109
e 47 112
e 47 114
e 47 118
e 47 135
e 47 136
e 47 150
e 47 154
e 47 157
e 47 159
e 47 163
e 47 168
e 47 174
e 47 185
e 48 63
e 48 65
e 48 74
e 48 79
e 48 105
e 48 107
e 48 111
e 48 119
e 48 131
e 48 135
e 48 144
e 48 151
e 48 178
e 48 179
e 48 192
e 48 197
e 49 53
e 49 72
e 49 74
e 49 93
e 49 95
e 49 97
e 49 142
e 49 144
e 49 146
e 49 152
e 49 153
e 49 163
e 49 164
e 49 166
e 49 168
e 49 183
e 49 189
e 49 192
e 50 51
e 50 52
e 50 56
e 50 59
e 50 67
e 50 73
e 50 74
e 50 80
e 50 85
e 50 88
e 50 92
e 50 97
e 50 104
e 50 111
e 50 116
e 50 121
e 50 128
e 50 163
e 50 167
e 50 187
e 50 192
e 50 194
e 50 195
e 51 57
e 51 61
e 51 63
e 51 68
e 51 72
e 51 90
e 51 91
e 51 101
e 51 109
e 51 112
e 51 113
e 51 137
e 51 140
e 51 141
e 51 148
e 51 158
e 51 166
e 51 173
e 51 174
e 51 199
e 51 200
e 52 60
e 52 92
e 52 99
e 52 124
e 52 148
e 52 167
e 52 168
e 52 173
e 52 182
e 52 198
e 53 67
e 53 97
e 53 116
e 53 118
e 53 119
e 53 130
e 53 137
e 53 140
e 53 143
e 53 155
e 53 174
e 53 181
e 53 188
e 53 193
e 54 61
e 54 63
e 54 83
e 54 111
e 54 147
e 54 163
e 54 168
e 54 169
e 54 170
e 54 173
e 54 176
e 54 197
e 55 57
e 55 69
e 55 81
e 55 87
e 55 103
e 55 108
e 55 121
e 55 122
e 55 125
e 55 131
e 55 133
e 55 145
e 55 151
e 55 156
e 55 164
e 55 165
e 55 180
e 55 185
e 55 193
e 56 75
e 56 82
e 56 88
e 56 96
e 56 107
e 56 112
e 56 120
e 56 135
e 56 141
e 56 142
e 56 144
e 56 172
e 56 195
e 56 196
e 57 58
e 57 68
e 57 91
e 57 96
e 57 100
e 57 103
e 57 112
e 57 113
e 57 124
e 57 147
e 57 155
e 57 166
e 57 176
e 57 177
e 57 189
e 58 62
e 58 66
e 58 67
e 58 69
e 58 70
e 58 73
e 58 79
e 58 83
e 58 96
e 58 98
e 58 135
e 58 141
e 58 147
e 58 150
e 58 152
e 58 156
e 58 175
e 58 176
e 58 177
e 59 67
e 59 75
e 59 87
e 59 91
e 59 95
e 59 105
e 59 113
e 59 114
e 59 115
e 59 119
e 59 123
e 59 145
e 59 149
e 59 152
e 59 154
e 59 175
e 59 180
e 59 199
e 60 63
e 60 70
e 60 76
e 60 78
e 60 99
e 60 126
e 60 138
e 60 155
e 60 160
e 60 161
e 60 172
e 60 173
e 60 177
e 60 181
e 60 186
e 60 192
e 60 198
e 61 81
e 61 85
e 61 94
e 61 113
e 61 121
e 61 128
e 61 140
e 61 167
e 61 198
e 62 68
e 62 89
e 62 92
e 62 97
e 62 107
e 62 109
e 62 114
e 62 115
e 62 118
e 62 126
e 62 134
e 62 142
e 62 144
e 62 157
e 62 165
e 62 171
e 62 183
e 62 185
e 62 200
e 63 64
e 63 65
e 63 81
e 63 88
e 63 97
e 63 102
e 63 108
e 63 111
e 63 112
e 63 119
e 63 159
e 63 180
e 63 186
e 63 188
e 63 192
e 64 66
e 64 81
e 64 84
e 64 91
e 64 96
e 64 101
e 64 119
e 64 146
e 64 151
e 64 159
e 64 162
e 64 169
e 64 172
e 64 187
e 64 196
e 64 198
e 65 69
e 65 70
e 65 80
e 65 81
e 65 90
e 65 92
e 65 110
e 65 112
e 65 118
e 65 128
e 65 136
e 65 161
e 65 164
e 65 179
e 65 183
e 66 71
e 66 80
e 66 88
e 66 106
e 66 120
e 66 127
e 66 145
e 66 151
e 66 158
e 66 159
e 66 169
e 66 173
e 66 184
e 66 197
e 67 75
e 67 78
e 67 82
e 67 84
e 67 86
e 67 90
e 67 94
e 67 101
e 67 111
e 67 127
e 67 138
e 67 151
e 67 154
e 67 161
e 67 176
e 67 186
e 67 188
e 68 80
e 68 83
e 68 88
e 68 90
e 68 92
e 68 104
e 68 108
e 68 110
e 68 112
e 68 118
e 68 131
e 68 133
e 68 151
e 68 160
e 68 161
e 68 180
e 68 192
e 68 195
e 68 198
e 68 199
e 69 70
e 69 76
e 69 92
e 69 98
e 69 112
e 69 113
e 69 136
e 69 139
e 69 143
e 69 152
e 69 163
e 69 171
e 69 175
e 69 180
e 69 186
e 69 189
e 70 82
e 70 92
e 70 101
e 70 105
e 70 124
e 70 130
e 70 131
e 70 150
e 70 152
e 70 153
e 70 169
e 70 184
e 70 186
e 70 196
e 71 80
e 71 81
e 71 84
e 71 95
e 71 96
e 71 103
e 71 105
e 71 118
e 71 123
e 71 134
e 71 143
e 71 154
e 71 162
e 71 163
e 71 174
e 71 186
e 71 190
e 72 74
e 72 87
e 72 88
e 72 89
e 72 100
e 72 103
e 72 108
e 72 115
e 72 116
e 72 117
e 72 120
e 72 123
e 72 129
e 72 134
e 72 150
e 72 152
e 72 161
e 72 162
e 72 166
e 72 176
e 72 182
e 72 184
e 72 193
e 73 79
e 73 80
e 73 83
e 73 110
e 73 115
e 73 179
e 73 184
e 74 76
e 74 79
e 74 90
e 74 97
e 74 98
e 74 100
e 74 104
e 74 108
e 74 117
e 74 139
e 74 144
e 74 145
e 74 146
e 74 152
e 74 164
e 74 172
e 74 191
e 74 195
e 75 81
e 75 90
e 75 96
e 75 97
e 75 99
e 75 106
e 75 111
e 75 131
e 75 134
e 75 144
e 75 148
e 75 182
e 75 189
e 76 87
e 76 91
e 76 94
e 76 112
e 76 127
e 76 128
e 76 135
e 76 136
e 76 142
e 76 145
e 76 160
e 76 177
e 76 178
e 76 181
e 76 186
e 76 193
e 76 195
e 77 86
e 77 89
e 77 96
e 77 114
e 77 122
e 77 126
e 77 149
e 77 155
e 77 158
e 77 169
e 77 171
e 77 173
e 77 184
e 77 186
e 77 191
e 77 194
e 77 197
e 78 80
e 78 110
e 78 122
e 78 123
e 78 125
e 78 126
e 78 128
e 78 141
e 78 156
e 78 163
e 78 178
e 78 193
e 78 198
e 79 106
e 79 112
e 79 124
e 79 125
e 79 128
e 79 133
e 79 142
e 79 144
e 79 160
e 79 187
e 79 196
e 80 85
e 80 88
e 80 99
e 80 100
e 80 102
e 80 111
e 80 126
e 80 127
e 80 137
e 80 152
e 80 159
e 80 162
e 80 166
e 80 167
e 80 172
e 80 178
e 80 185
e 80 192
e 81 84
e 81 85
e 81 90
e 81 103
e 81 106
e 81 121
e 81 126
e 81 132
e 81 137
e 81 138
e 81 146
e 81 159
e 81 164
e 81 166
e 81 172
e 81 173
e 81 178
e 81 180
e 81 181
e 81 192
e 81 200
e 82 85
e 82 95
e 82 130
e 82 144
e 82 145
e 82 174
e 82 179
e 82 181
e 82 182
e 82 185
e 82 186
e 83 94
e 83 96
e 83 110
e 83 112
e 83 118
e 83 133
e 83 137
e 83 141
e 83 147
e 83 157
e 83 159
e 83 174
e 83 189
e 83 193
e 84 85
e 84 87
e 84 109
e 84 114
e 84 131
e 84 142
e 84 143
e 84 177
e 84 184
e 84 196
e 85 93
e 85 95
e 85 97
e 85 102
e 85 118
e 85 134
e 85 157
e 85 164
e 85 173
e 85 179
e 85 184
e 85 198
e 85 199
e 86 88
e 86 89
e 86 90
e 86 104
e 86 133
e 86 137
e 86 138
e 86 146
e 86 156
e 86 157
e 86 160
e 86 164
e 87 94
e 87 99
e 87 124
e 87 133
e 88 100
e 88 106
e 88 111
e 88 126
e 88 142
e 88 147
e 88 154
e 88 171
e 88 183
e 88 184
e 88 187
e 88 188
e 88 190
e 89 121
e 89 131
e 89 192
e 90 100
e 90 111
e 90 114
e 90 121
e 90 131
e 90 144
e 90 168
e 90 192
e 90 197
e 90 198
e 91 94
e 91 98
e 91 111
e 91 113
e 91 115
e 91 130
e 91 161
e 91 162
e 91 163
e 91 164
e 91 172
e 91 175
e 91 182
e 92 95
e 92 97
e 92 109
e 92 117
e 92 123
e 92 129
e 92 133
e 92 134
e 92 140
e 92 142
e 92 151
e 92 186
e 92 187
e 92 191
e 92 198
e 93 94
e 93 113
e 93 120
e 93 124
e 93 143
e 93 150
e 93 195
e 93 197
e 93 199
e 94 95
e 94 101
e 94 113
e 94 126
e 94 134
e 94 144
e 94 149
e 94 157
e 94 164
e 94 167
e 94 175
e 94 195
e 94 199
e 95 104
e 95 113
e 95 119
e 95 122
e 95 136
e 95 139
e 95 144
e 95 150
e 95 152
e 95 176
e 95 182
e 95 199
e 96 128
e 96 129
e 96 136
e 96 153
e 96 164
e 96 176
e 96 177
e 96 186
e 96 190
e 96 192
e 96 194
e 96 197
e 97 109
e 97 110
e 97 112
e 97 152
e 97 158
e 97 161
e 97 176
e 97 189
e 98 104
e 98 107
e 98 111
e 98 112
e 98 120
e 98 124
e 98 126
e 98 130
e 98 135
e 98 141
e 98 146
e 98 155
e 98 160
e 98 164
e 98 170
e 98 174
e 98 187
e 98 189
e 98 191
e 98 193
e 98 194
e 99 101
e 99 106
e 99 120
e 99 124
e 99 138
e 99 139
e 99 142
e 99 154
e 99 178
e 99 184
e 99 187
e 99 194
e 100 114
e 100 115
e 100 117
e 100 126
e 100 133
e 100 148
e 100 179
e 101 112
e 101 145
e 101 154
e 101 157
e 101 158
e 101 183
e 102 106
e 102 141
e 102 153
e 102 190
e 102 197
e 103 104
e 103 106
e 103 119
e 103 120
e 103 135
e 103 140
e 103 142
e 103 153
e 103 161
e 103 170
e 103 174
e 103 179
e 103 186
e 103 189
e 103 192
e 104 114
e 104 127
e 104 134
e 104 152
e 104 169
e 104 173
e 104 177
e 104 190
e 104 200
e 105 108
e 105 129
e 105 130
e 105 143
e 105 144
e 105 151
e 105 157
e 105 173
e 105 185
e 105 190
e 105 195
e 106 115
e 106 118
e 106 127
e 106 128
e 106 132
e 106 146
e 106 150
e 106 153
e 106 168
e 106 169
e 106 178
e 106 179
e 106 193
e 106 196
e 106 198
e 107 112
e 107 126
e 107 131
e 107 136
e 107 153
e 107 155
e 107 169
e 107 180
e 107 181
e 107 191
e 107 193
e 108 111
e 108 118
e 108 141
e 108 153
e 108 155
e 108 162
e 108 171
e 108 178
e 108 185
e 108 187
e 108 191
e 108 199
e 109 112
e 109 113
e 109 117
e 109 122
e 109 135
e 109 148
e 109 149
e 109 156
e 109 161
e 109 180
e 109 182
e 109 183
e 109 186
e 109 187
e 109 191
e 109 194
e 110 112
e 110 113
e 110 114
e 110 118
e 110 132
e 110 143
e 110 148
e 110 161
e 110 167
e 110 178
e 110 190
e 110 192
e 110 199
e 111 114
e 111 116
e 111 143
e 111 171
e 111 173
e 111 178
e 111 190
e 111 193
e 111 194
e 111 195
e 112 113
e 112 155
e 112 160
e 112 169
e 112 178
e 112 200
e 113 123
e 113 129
e 113 149
e 113 151
e 113 180
e 113 181
e 113 195
e 113 199
e 114 123
e 114 132
e 114 141
e 114 146
e 114 177
e 114 180
e 114 189
e 114 196
e 114 197
e 114 199
e 114 200
e 115 117
e 115 141
e 115 144
e 115 149
e 115 155
e 115 159
e 115 164
e 115 166
e 115 176
e 115 178
e 115 187
e 116 119
e 116 151
e 116 171
e 116 173
e 116 182
e 116 195
e 117 118
e 117 123
e 117 126
e 117 135
e 117 149
e 117 158
e 117 160
e 117 178
e 117 179
e 117 187
e 117 190
e 117 196
e 117 198
e 117 199
e 118 122
e 118 124
e 118 144
e 118 158
e 118 167
e 118 176
e 118 177
e 118 178
e 118 179
e 118 181
e 118 192
e 119 131
e 119 147
e 119 150
e 119 157
e 119 161
e 119 163
e 119 165
e 119 170
e 119 175
e 119 178
e 120 121
e 120 122
e 120 142
e 120 149
e 120 150
e 120 179
e 120 185
e 120 186
e 120 188
e 120 191
e 120 194
e 121 122
e 121 125
e 121 157
e 121 162
e 121 187
e 122 124
e 122 156
e 122 175
e 122 179
e 122 181
e 122 186
e 122 190
e 122 191
e 122 193
e 122 195
e 123 139
e 123 143
e 123 145
e 123 166
e 123 185
e 123 186
e 123 187
e 123 192
e 124 141
e 124 151
e 124 165
e 124 167
e 124 171
e 124 194
e 124 197
e 124 199
e 125 134
e 125 140
e 125 146
e 125 157
e 125 158
e 125 163
e 125 166
e 125 168
e 125 170
e 125 189
e 125 196
e 126 128
e 126 133
e 126 141
e 126 146
e 126 168
e 126 179
e 126 180
e 126 181
e 126 184
e 126 197
e 127 151
e 127 153
e 127 167
e 127 198
e 128 136
e 128 142
e 128 145
e 128 150
e 128 151
e 128 154
e 128 159
e 128 169
e 128 175
e 128 176
e 128 177
e 128 187
e 128 188
e 128 196
e 129 134
e 129 144
e 129 150
e 129 152
e 129 167
e 129 184
e 129 187
e 130 147
e 130 170
e 130 189
e 130 193
e 131 140
e 131 170
e 132 135
e 132 138
e 132 156
e 132 160
e 132 166
e 132 168
e 132 173
e 132 174
e 132 181
e 132 185
e 132 186
e 132 187
e 132 191
e 132 196
e 133 135
e 133 136
e 133 138
e 133 156
e 133 159
e 133 171
e 133 183
e 133 189
e 133 190
e 133 191
e 134 138
e 134 150
e 134 177
e 134 185
e 134 187
e 135 137
e 135 146
e 135 148
e 135 152
e 135 161
e 135 196
e 136 138
e 136 172
e 137 147
e 137 155
e 137 170
e 137 182
e 137 190
e 137 199
e 138 145
e 138 183
e 138 195
e 138 199
e 139 156
e 139 164
e 139 169
e 139 172
e 139 177
e 139 180
e 139 195
e 139 199
e 140 151
e 140 152
e 140 159
e 140 166
e 140 171
e 140 172
e 140 180
e 140 193
e 141 166
e 141 177
e 141 178
e 142 144
e 142 146
e 142 191
e 143 146
e 143 154
e 143 160
e 143 196
e 143 198
e 144 145
e 144 147
e 144 155
e 144 160
e 144 167
e 144 172
e 144 198
e 144 200
e 145 146
e 145 148
e 145 182
e 145 198
e 145 199
e 146 168
e 146 175
e 146 178
e 146 186
e 147 165
e 147 176
e 147 186
e 147 191
e 147 193
e 147 194
e 148 160
e 148 162
e 148 168
e 148 187
e 148 194
e 148 198
e 149 156
e 149 165
e 149 167
e 149 176
e 149 185
e 149 186
e 149 190
e 149 192
e 149 195
e 149 196
e 149 197
e 150 153
e 150 160
e 150 162
e 150 163
e 150 173
e 150 177
e 151 158
e 151 169
e 151 173
e 151 178
e 151 194
e 151 199
e 152 157
e 152 160
e 152 162
e 152 169
e 152 181
e 152 190
e 152 198
e 153 157
e 153 164
e 153 167
e 153 177
e 153 182
e 153 195
e 154 155
e 155 156
e 155 158
e 155 160
e 155 162
e 155 164
e 155 165
e 155 176
e 155 179
e 155 182
e 155 186
e 155 197
e 155 200
e 156 158
e 156 161
e 156 171
e 156 172
e 156 173
e 156 177
e 156 200
e 157 159
e 157 194
e 158 174
e 158 177
e 158 187
e 158 188
e 158 198
e 159 160
e 159 187
e 159 191
e 160 168
e 160 169
e 160 175
e 160 186
e 161 182
e 161 183
e 161 186
e 161 190
e 161 191
e 161 198
e 161 199
e 162 168
e 162 194
e 163 165
e 163 178
e 164 166
e 164 182
e 164 191
e 164 194
e 165 169
e 165 170
e 165 182
e 165 184
e 166 188
e 166 193
e 167 169
e 167 176
e 167 194
e 168 169
e 168 178
e 168 179
e 168 187
e 168 196
e 168 200
e 169 171
e 169 172
e 169 173
e 169 175
e 169 182
e 169 196
e 169 200
e 170 176
e 170 196
e 171 175
e 171 176
e 171 192
e 172 184
e 173 176
e 173 195
e 174 183
e 174 187
e 174 193
e 174 197
e 175 178
e 175 186
e 175 197
e 176 178
e 176 183
e 177 194
e 177 196
e 178 200
e 180 181
e 180 182
e 180 186
e 180 187
e 180 188
e 180 190
e 181 186
e 181 198
e 181 199
e 182 191
e 182 200
e 183 184
e 184 189
e 184 196
e 186 188
e 186 189
e 187 194
e 188 193
e 188 199
e 189 197
e 191 199
e 192 193
e 192 199
e 194 197
e 195 199
e 197 198
